(set-logic HORN)
(declare-datatypes ((Nat_0 0)) (((Z_0 ) (S_0 (unS_0 Nat_0)))))
(declare-fun diseqNat_0 (Nat_0 Nat_0) Bool)
(declare-fun unS_1 (Nat_0 Nat_0) Bool)
(declare-fun isZ_0 (Nat_0) Bool)
(declare-fun isS_0 (Nat_0) Bool)
(assert (forall ((x_23 Nat_0) (x_22 Nat_0))
	(=> (= x_23 (S_0 x_22))
	    (unS_1 x_22 x_23))))
(assert (isZ_0 Z_0))
(assert (forall ((x_24 Nat_0))
	(isS_0 (S_0 x_24))))
(assert (forall ((x_25 Nat_0))
	(diseqNat_0 Z_0 (S_0 x_25))))
(assert (forall ((x_26 Nat_0))
	(diseqNat_0 (S_0 x_26) Z_0)))
(assert (forall ((x_27 Nat_0) (x_28 Nat_0))
	(=> (diseqNat_0 x_27 x_28)
	    (diseqNat_0 (S_0 x_27) (S_0 x_28)))))
(declare-fun add_0 (Nat_0 Nat_0 Nat_0) Bool)
(declare-fun minus_0 (Nat_0 Nat_0 Nat_0) Bool)
(declare-fun le_0 (Nat_0 Nat_0) Bool)
(declare-fun ge_0 (Nat_0 Nat_0) Bool)
(declare-fun lt_0 (Nat_0 Nat_0) Bool)
(declare-fun gt_0 (Nat_0 Nat_0) Bool)
(declare-fun mult_0 (Nat_0 Nat_0 Nat_0) Bool)
(declare-fun div_0 (Nat_0 Nat_0 Nat_0) Bool)
(declare-fun mod_0 (Nat_0 Nat_0 Nat_0) Bool)
(assert (forall ((y_0 Nat_0))
	(add_0 y_0 Z_0 y_0)))
(assert (forall ((x_16 Nat_0) (y_0 Nat_0) (r_0 Nat_0))
	(=> (add_0 r_0 x_16 y_0)
	    (add_0 (S_0 r_0) (S_0 x_16) y_0))))
(assert (forall ((y_0 Nat_0))
	(minus_0 Z_0 Z_0 y_0)))
(assert (forall ((x_16 Nat_0) (y_0 Nat_0) (r_0 Nat_0))
	(=> (minus_0 r_0 x_16 y_0)
	    (minus_0 (S_0 r_0) (S_0 x_16) y_0))))
(assert (forall ((y_0 Nat_0))
	(le_0 Z_0 y_0)))
(assert (forall ((x_16 Nat_0) (y_0 Nat_0))
	(=> (le_0 x_16 y_0)
	    (le_0 (S_0 x_16) (S_0 y_0)))))
(assert (forall ((y_0 Nat_0))
	(ge_0 y_0 Z_0)))
(assert (forall ((x_16 Nat_0) (y_0 Nat_0))
	(=> (ge_0 x_16 y_0)
	    (ge_0 (S_0 x_16) (S_0 y_0)))))
(assert (forall ((y_0 Nat_0))
	(lt_0 Z_0 (S_0 y_0))))
(assert (forall ((x_16 Nat_0) (y_0 Nat_0))
	(=> (lt_0 x_16 y_0)
	    (lt_0 (S_0 x_16) (S_0 y_0)))))
(assert (forall ((y_0 Nat_0))
	(gt_0 (S_0 y_0) Z_0)))
(assert (forall ((x_16 Nat_0) (y_0 Nat_0))
	(=> (gt_0 x_16 y_0)
	    (gt_0 (S_0 x_16) (S_0 y_0)))))
(assert (forall ((y_0 Nat_0))
	(mult_0 Z_0 Z_0 y_0)))
(assert (forall ((x_16 Nat_0) (y_0 Nat_0) (r_0 Nat_0) (z_0 Nat_0))
	(=>	(and (mult_0 r_0 x_16 y_0)
			(add_0 z_0 r_0 y_0))
		(mult_0 z_0 (S_0 x_16) y_0))))
(assert (forall ((x_16 Nat_0) (y_0 Nat_0))
	(=> (lt_0 x_16 y_0)
	    (div_0 Z_0 x_16 y_0))))
(assert (forall ((x_16 Nat_0) (y_0 Nat_0) (r_0 Nat_0) (z_0 Nat_0))
	(=>	(and (ge_0 x_16 y_0)
			(minus_0 z_0 x_16 y_0)
			(div_0 r_0 z_0 y_0))
		(div_0 (S_0 r_0) x_16 y_0))))
(assert (forall ((x_16 Nat_0) (y_0 Nat_0))
	(=> (lt_0 x_16 y_0)
	    (mod_0 x_16 x_16 y_0))))
(assert (forall ((x_16 Nat_0) (y_0 Nat_0) (r_0 Nat_0) (z_0 Nat_0))
	(=>	(and (ge_0 x_16 y_0)
			(minus_0 z_0 x_16 y_0)
			(mod_0 r_0 z_0 y_0))
		(mod_0 r_0 x_16 y_0))))
(declare-datatypes ((Bin_0 0)) (((One_0 ) (ZeroAnd_0 (projZeroAnd_0 Bin_0)) (OneAnd_0 (projOneAnd_0 Bin_0)))))
(declare-fun diseqBin_0 (Bin_0 Bin_0) Bool)
(declare-fun projZeroAnd_1 (Bin_0 Bin_0) Bool)
(declare-fun projOneAnd_1 (Bin_0 Bin_0) Bool)
(declare-fun isOne_0 (Bin_0) Bool)
(declare-fun isZeroAnd_0 (Bin_0) Bool)
(declare-fun isOneAnd_0 (Bin_0) Bool)
(assert (forall ((x_31 Bin_0) (x_30 Bin_0))
	(=> (= x_31 (ZeroAnd_0 x_30))
	    (projZeroAnd_1 x_30 x_31))))
(assert (forall ((x_33 Bin_0) (x_32 Bin_0))
	(=> (= x_33 (OneAnd_0 x_32))
	    (projOneAnd_1 x_32 x_33))))
(assert (isOne_0 One_0))
(assert (forall ((x_34 Bin_0))
	(isZeroAnd_0 (ZeroAnd_0 x_34))))
(assert (forall ((x_35 Bin_0))
	(isOneAnd_0 (OneAnd_0 x_35))))
(assert (forall ((x_36 Bin_0))
	(diseqBin_0 One_0 (ZeroAnd_0 x_36))))
(assert (forall ((x_37 Bin_0))
	(diseqBin_0 One_0 (OneAnd_0 x_37))))
(assert (forall ((x_38 Bin_0))
	(diseqBin_0 (ZeroAnd_0 x_38) One_0)))
(assert (forall ((x_39 Bin_0))
	(diseqBin_0 (OneAnd_0 x_39) One_0)))
(assert (forall ((x_40 Bin_0) (x_41 Bin_0))
	(diseqBin_0 (ZeroAnd_0 x_40) (OneAnd_0 x_41))))
(assert (forall ((x_42 Bin_0) (x_43 Bin_0))
	(diseqBin_0 (OneAnd_0 x_42) (ZeroAnd_0 x_43))))
(assert (forall ((x_44 Bin_0) (x_45 Bin_0))
	(=> (diseqBin_0 x_44 x_45)
	    (diseqBin_0 (ZeroAnd_0 x_44) (ZeroAnd_0 x_45)))))
(assert (forall ((x_46 Bin_0) (x_47 Bin_0))
	(=> (diseqBin_0 x_46 x_47)
	    (diseqBin_0 (OneAnd_0 x_46) (OneAnd_0 x_47)))))
(declare-fun toNat_0 (Nat_0 Bin_0) Bool)
(assert (forall ((x_0 Bin_0) (ys_0 Bin_0) (x_2 Nat_0) (x_3 Nat_0) (x_4 Nat_0) (x_17 Nat_0) (x_18 Nat_0))
	(=>	(and (= x_2 x_18)
			(toNat_0 x_3 ys_0)
			(toNat_0 x_4 ys_0)
			(= x_0 (OneAnd_0 ys_0))
			(add_0 x_17 (S_0 Z_0) x_3)
			(add_0 x_18 x_17 x_4))
		(toNat_0 x_2 x_0))))
(assert (forall ((x_0 Bin_0) (xs_0 Bin_0) (x_5 Nat_0) (x_6 Nat_0) (x_7 Nat_0) (x_19 Nat_0))
	(=>	(and (= x_5 x_19)
			(toNat_0 x_6 xs_0)
			(toNat_0 x_7 xs_0)
			(= x_0 (ZeroAnd_0 xs_0))
			(add_0 x_19 x_6 x_7))
		(toNat_0 x_5 x_0))))
(assert (forall ((x_0 Bin_0) (x_8 Nat_0))
	(=>	(and (= x_8 (S_0 Z_0))
			(= x_0 One_0))
		(toNat_0 x_8 x_0))))
(declare-fun s_0 (Bin_0 Bin_0) Bool)
(assert (forall ((x_1 Bin_0) (ys_1 Bin_0) (x_9 Bin_0) (x_10 Bin_0))
	(=>	(and (= x_9 (ZeroAnd_0 x_10))
			(s_0 x_10 ys_1)
			(= x_1 (OneAnd_0 ys_1)))
		(s_0 x_9 x_1))))
(assert (forall ((x_1 Bin_0) (xs_1 Bin_0) (x_11 Bin_0))
	(=>	(and (= x_11 (OneAnd_0 xs_1))
			(= x_1 (ZeroAnd_0 xs_1)))
		(s_0 x_11 x_1))))
(assert (forall ((x_1 Bin_0) (x_12 Bin_0))
	(=>	(and (= x_12 (ZeroAnd_0 One_0))
			(= x_1 One_0))
		(s_0 x_12 x_1))))
(assert (forall ((n_0 Bin_0) (x_13 Bin_0) (x_14 Nat_0) (x_15 Nat_0) (x_20 Nat_0))
	(=>	(and (diseqNat_0 x_14 x_20)
			(s_0 x_13 n_0)
			(toNat_0 x_14 x_13)
			(toNat_0 x_15 n_0)
			(add_0 x_20 (S_0 Z_0) x_15))
		false)))
(check-sat)
